32	4
14	16	15	12
0	0	0	0	0	2	2	3
8	14	16	15	12	3	4	5	6
3	0	0	0	0	3	5	6	7
9	14	16	15	11	3	7	8	9
6	0	0	0	1	7	9	11	12	13	15	19	23
3	0	0	0	1	4	8	14	19	24
1	5	8	7	1	11	10	11	12	14	15	18	19	21	22	23	24
4	5	7	4	8	11	10	11	12	13	15	16	17	20	21	22	23
7	2	1	1	3	8	10	14	16	17	18	20	21	24
6	1	6	1	5	5	25	26	27	28	31
5	4	7	7	3	5	25	26	27	28	31
10	1	9	2	1	5	25	26	27	28	31
9	1	1	3	2	5	25	26	27	28	31
1	1	9	1	1	4	26	27	28	31
10	5	6	2	1	4	25	26	27	28
3	9	7	8	11	4	25	26	28	31
4	2	3	1	2	4	25	26	27	28
3	9	4	7	2	4	25	26	28	31
6	4	1	11	3	4	25	26	27	31
8	1	4	1	6	4	26	27	30	31
8	1	1	1	1	3	25	26	27
6	3	4	7	1	3	25	26	27
2	3	2	1	1	2	26	28
9	4	1	11	4	3	25	27	28
4	4	3	9	5	2	29	30
5	1	0	3	1	1	29
4	3	0	3	1	1	29
1	10	8	6	5	1	30
10	14	16	15	12	1	32
1	11	16	12	11	1	32
10	14	16	15	12	1	32
0	0	0	0	0	0
